TYPE : Vertex Cover
DIMENSION: 28
EDGE_DATA_SECTION:
0 1
0 2
0 11
0 24
1 6
1 12
1 15
1 24
1 26
2 6
2 9
2 14
2 18
2 25
3 16
3 24
3 25
4 8
4 9
4 11
4 20
5 6
5 9
5 14
5 16
5 18
5 19
6 14
6 15
6 16
6 19
6 27
7 10
7 25
7 27
8 10
8 22
9 12
9 17
9 20
9 21
9 27
10 12
10 15
10 17
10 19
11 26
12 15
12 25
12 26
13 19
13 23
14 18
14 26
15 22
15 24
15 25
16 17
16 18
18 23
19 21
20 21
20 23
20 25
21 22
23 24
23 26
-1
VERTEX_DEGREE:
4.0 6.0 6.0 3.0 4.0 6.0 8.0 3.0 3.0 8.0 6.0 3.0 6.0 2.0 5.0 7.0 5.0 3.0 5.0 5.0 5.0 4.0 3.0 5.0 5.0 6.0 5.0 3.0
VERTEX_COVER:
0 1 3 4 6 7 8 9 10 14 15 16 18 19 21 23 25 26
EOF
